NPROCS=0
This instance is clustered!
Gurobi Optimizer version 9.0.0 build v9.0.0rc2 (linux64)
Optimize a model with 26 rows, 170 columns and 338 nonzeros
Model fingerprint: 0xebe7d2fe
Variable types: 1 continuous, 169 integer (169 binary)
Coefficient statistics:
  Matrix range     [1e+00, 1e+00]
  Objective range  [9e-01, 1e+02]
  Bounds range     [1e+00, 1e+00]
  RHS range        [1e+00, 1e+00]
 done with super cut 0
Presolve removed 2 rows and 36 columns
Presolve time: 0.00s
Presolved: 24 rows, 134 columns, 266 nonzeros
Variable types: 1 continuous, 133 integer (133 binary)

Root relaxation: objective 1.340676e+02, 19 iterations, 0.00 seconds
 done with super cut 1

    Nodes    |    Current Node    |     Objective Bounds      |     Work
 Expl Unexpl |  Obj  Depth IntInf | Incumbent    BestBd   Gap | It/Node Time

     0     0  284.11345    0   24          -  284.11345      -     -    0s
 done with super cut 2
 done with super cut 3
H    0     0                     606.3410838  284.11345  53.1%     -    0s
 done with super cut 4
 done with super cut 5
 done with super cut 6
H    0     0                     460.9249942  284.11345  38.4%     -    0s
 done with super cut 7
 done with super cut 8
H    0     0                     396.6741082  284.11345  28.4%     -    0s
     0     0  286.43500    0   26  396.67411  286.43500  27.8%     -    0s
 done with super cut 9
 done with super cut 10
H    0     0                     350.7450147  286.43500  18.3%     -    1s
     0     0  286.53173    0   29  350.74501  286.53173  18.3%     -    1s
H    0     0                     348.0685388  290.73646  16.5%     -    1s
     0     2  290.73646    0   32  348.06854  290.73646  16.5%     -    1s
H   42    24                     343.1224179  295.03076  14.0%   7.8    1s

Cutting planes:
  Gomory: 1
  Lazy constraints: 64

Explored 432 nodes (3016 simplex iterations) in 1.42 seconds
Thread count was 12 (of 12 available processors)

Solution count 6: 343.122 348.069 350.745 ... 606.341

Optimal solution found (tolerance 1.00e-04)
Best objective 3.431224179420e+02, best bound 3.431224179420e+02, gap 0.0000%

User-callback calls 1063, time in user-callback 1.32 sec
/projects/academic/josewalt/caigao/RRARP_BD/BendersDecomp/ret/model_outs/n_11_h_1_algo_4.out
 =====>>>>> Solution is written to file in <../ret/model_outs> !!!
===>> All Done!
